Maximize
F - f1 - f2

Subject to
F - 15y3 - 5y16 - 20y58 - 15y66 - 0y84 - 10y87 - 20y88 - 0y97 - 15y109 - 15y114 - 20y206 - 5y215 - 5y240 - 5y254 - 15y261 - 20y264 - 10y289 - 20y251 - 20y187 - 15y226 - 15y73 - 5y181 - 15y239 - 20y23 - 20y20 = 0
f1 - 0.005965s3 - 0.005965s16 - 0.005965s58 - 0.005965s66 - 0.005965s84 - 0.005965s87 - 0.005965s88 - 0.005965s97 - 0.005965s109 - 0.005965s114 - 0.005965s206 - 0.005965s215 - 0.005965s240 - 0.005965s254 - 0.005965s261 - 0.005965s264 - 0.005965s289 - 0.005965s251 - 0.005965s187 - 0.005965s226 - 0.005965s73 - 0.005965s181 - 0.005965s239 - 0.005965s23 - 0.005965s20  = 0
f2 - 3.02y3 - 2.73y16 - 3.98y58 - 2.99y66 - 3.80y84 - 3.57y87 - 3.16y88 - 3.65y97 - 3.78y109 - 3.83y114 - 3.36y206 - 2.84y215 - 3.70y240 - 2.91y254 - 3.86y261 - 2.92y264 - 2.87y289 - 3.04y251 - 3.23y187 - 2.91y226 - 1.17y73 - 1.11y181 - 1.11y239 - 0.98y23 - 0.94y20 = 0

x119x66x1 + x119x88x1 + x119x206x1 + x119x251x1 + x119x187x1 + x119x226x1 + x119x73x1 + x119x181x1 + x119x23x1 
<= 1
x22x66x1 + x22x88x1 + x22x206x1 + x22x251x1 + x22x187x1 + x22x226x1 + x22x73x1 + x22x181x1 + x22x23x1 
<= 2
x57x66x1 + x57x87x1 + x57x88x1 + x57x114x1 + x57x206x1 + x57x251x1 + x57x187x1 + x57x226x1 + x57x73x1 + x57x181x1 + x57x23x1 
<= 1
x245x66x1 + x245x88x1 + x245x206x1 + x245x251x1 + x245x187x1 + x245x226x1 + x245x73x1 + x245x181x1 + x245x23x1 
<= 1
x191x66x1 + x191x87x1 + x191x88x1 + x191x114x1 + x191x206x1 + x191x251x1 + x191x187x1 + x191x226x1 + x191x73x1 + x191x181x1 + x191x23x1 
<= 1
x216x66x1 + x216x88x1 + x216x206x1 + x216x251x1 + x216x187x1 + x216x226x1 + x216x73x1 + x216x181x1 + x216x23x1 
<= 1

x201x3x2 + x201x16x2 + x201x58x2 + x201x88x2 + x201x114x2 + x201x215x2 + x201x240x2 + x201x254x2 + x201x187x2 + x201x20x2 
<= 1
x4x3x2 + x4x16x2 + x4x88x2 + x4x215x2 + x4x254x2 + x4x187x2 + x4x20x2 
<= 2
x119x3x2 + x119x16x2 + x119x88x2 + x119x215x2 + x119x254x2 + x119x187x2 + x119x20x2 
<= 1
x97x3x2 + x97x187x2 + x97x20x2 
<= 1
x110x3x2 + x110x16x2 + x110x58x2 + x110x88x2 + x110x97x2 + x110x109x2 + x110x114x2 + x110x215x2 + x110x240x2 + x110x254x2 + x110x187x2 + x110x20x2 
<= 1
x231x3x2 + x231x16x2 + x231x58x2 + x231x88x2 + x231x97x2 + x231x109x2 + x231x114x2 + x231x215x2 + x231x240x2 + x231x254x2 + x231x187x2 + x231x20x2 
<= 1
x245x3x2 + x245x16x2 + x245x88x2 + x245x215x2 + x245x254x2 + x245x187x2 + x245x20x2 
<= 1
x216x3x2 + x216x16x2 + x216x58x2 + x216x88x2 + x216x215x2 + x216x254x2 + x216x187x2 + x216x20x2 
<= 1

x257x3x3 + x257x206x3 + x257x254x3 + x257x264x3 + x257x289x3 + x257x251x3 + x257x226x3 + x257x73x3 + x257x181x3 + x257x239x3 + x257x23x3 + x257x20x3 
<= 2
x201x3x3 + x201x58x3 + x201x206x3 + x201x254x3 + x201x264x3 + x201x289x3 + x201x251x3 + x201x226x3 + x201x73x3 + x201x181x3 + x201x239x3 + x201x23x3 + x201x20x3 
<= 1
x84x3x3 + x84x206x3 + x84x254x3 + x84x264x3 + x84x289x3 + x84x251x3 + x84x226x3 + x84x73x3 + x84x181x3 + x84x239x3 + x84x23x3 + x84x20x3 
<= 2
x97x3x3 + x97x206x3 + x97x289x3 + x97x251x3 + x97x226x3 + x97x73x3 + x97x181x3 + x97x239x3 + x97x23x3 + x97x20x3 
<= 1
x231x3x3 + x231x58x3 + x231x84x3 + x231x97x3 + x231x206x3 + x231x254x3 + x231x261x3 + x231x264x3 + x231x289x3 + x231x251x3 + x231x226x3 + x231x73x3 + x231x181x3 + x231x239x3 + x231x23x3 + x231x20x3 
<= 1
x57x3x3 + x57x58x3 + x57x97x3 + x57x206x3 + x57x254x3 + x57x264x3 + x57x289x3 + x57x251x3 + x57x226x3 + x57x73x3 + x57x181x3 + x57x239x3 + x57x23x3 + x57x20x3 
<= 1
x191x3x3 + x191x58x3 + x191x206x3 + x191x254x3 + x191x264x3 + x191x289x3 + x191x251x3 + x191x226x3 + x191x73x3 + x191x181x3 + x191x239x3 + x191x23x3 + x191x20x3 
<= 1

x201x3x2 + x4x3x2 + x119x3x2 + x97x3x2 + x110x3x2 + x231x3x2 + x245x3x2 + x216x3x2 
- x3x0x2
- x3x187x2 
= 0
x257x3x3 + x201x3x3 + x84x3x3 + x97x3x3 + x231x3x3 + x57x3x3 + x191x3x3 
- x3x0x3
- x3x251x3 - x3x226x3 
= 0


x201x16x2 + x4x16x2 + x119x16x2 + x110x16x2 + x231x16x2 + x245x16x2 + x216x16x2 
- x16x0x2
- x16x20x2 
= 0



x201x58x2 + x110x58x2 + x231x58x2 + x216x58x2 
- x58x0x2

= 0
x201x58x3 + x231x58x3 + x57x58x3 + x191x58x3 
- x58x0x3

= 0

x119x66x1 + x22x66x1 + x57x66x1 + x245x66x1 + x191x66x1 + x216x66x1 
- x66x0x1
- x66x251x1 - x66x187x1 - x66x226x1 
= 0





x231x84x3 
- x84x0x3

= 0

x57x87x1 + x191x87x1 
- x87x0x1

= 0



x119x88x1 + x22x88x1 + x57x88x1 + x245x88x1 + x191x88x1 + x216x88x1 
- x88x0x1
- x88x187x1 
= 0
x201x88x2 + x4x88x2 + x119x88x2 + x110x88x2 + x231x88x2 + x245x88x2 + x216x88x2 
- x88x0x2
- x88x187x2 
= 0



x110x97x2 + x231x97x2 
- x97x0x2

= 0
x231x97x3 + x57x97x3 
- x97x0x3

= 0


x110x109x2 + x231x109x2 
- x109x0x2

= 0


x57x114x1 + x191x114x1 
- x114x0x1

= 0
x201x114x2 + x110x114x2 + x231x114x2 
- x114x0x2

= 0


x119x206x1 + x22x206x1 + x57x206x1 + x245x206x1 + x191x206x1 + x216x206x1 
- x206x0x1
- x206x187x1 
= 0

x257x206x3 + x201x206x3 + x84x206x3 + x97x206x3 + x231x206x3 + x57x206x3 + x191x206x3 
- x206x0x3

= 0


x201x215x2 + x4x215x2 + x119x215x2 + x110x215x2 + x231x215x2 + x245x215x2 + x216x215x2 
- x215x0x2
- x215x20x2 
= 0



x201x240x2 + x110x240x2 + x231x240x2 
- x240x0x2

= 0



x201x254x2 + x4x254x2 + x119x254x2 + x110x254x2 + x231x254x2 + x245x254x2 + x216x254x2 
- x254x0x2
- x254x187x2 - x254x20x2 
= 0
x257x254x3 + x201x254x3 + x84x254x3 + x231x254x3 + x57x254x3 + x191x254x3 
- x254x0x3
- x254x251x3 - x254x226x3 - x254x20x3 
= 0



x231x261x3 
- x261x0x3

= 0



x257x264x3 + x201x264x3 + x84x264x3 + x231x264x3 + x57x264x3 + x191x264x3 
- x264x0x3
- x264x251x3 - x264x226x3 - x264x20x3 
= 0



x257x289x3 + x201x289x3 + x84x289x3 + x97x289x3 + x231x289x3 + x57x289x3 + x191x289x3 
- x289x0x3
- x289x251x3 - x289x226x3 - x289x20x3 
= 0

x119x251x1 + x22x251x1 + x57x251x1 + x245x251x1 + x191x251x1 + x216x251x1 + x66x251x1 
- x251x0x1

= 0

x257x251x3 + x201x251x3 + x84x251x3 + x97x251x3 + x231x251x3 + x57x251x3 + x191x251x3 + x3x251x3 + x254x251x3 + x264x251x3 + x289x251x3 
- x251x0x3

= 0

x119x187x1 + x22x187x1 + x57x187x1 + x245x187x1 + x191x187x1 + x216x187x1 + x66x187x1 + x88x187x1 + x206x187x1 
- x187x0x1

= 0
x201x187x2 + x4x187x2 + x119x187x2 + x97x187x2 + x110x187x2 + x231x187x2 + x245x187x2 + x216x187x2 + x3x187x2 + x88x187x2 + x254x187x2 
- x187x0x2

= 0


x119x226x1 + x22x226x1 + x57x226x1 + x245x226x1 + x191x226x1 + x216x226x1 + x66x226x1 
- x226x0x1

= 0

x257x226x3 + x201x226x3 + x84x226x3 + x97x226x3 + x231x226x3 + x57x226x3 + x191x226x3 + x3x226x3 + x254x226x3 + x264x226x3 + x289x226x3 
- x226x0x3

= 0

x119x73x1 + x22x73x1 + x57x73x1 + x245x73x1 + x191x73x1 + x216x73x1 
- x73x0x1
- x73x181x1 - x73x23x1 
= 0

x257x73x3 + x201x73x3 + x84x73x3 + x97x73x3 + x231x73x3 + x57x73x3 + x191x73x3 
- x73x0x3
- x73x181x3 - x73x239x3 - x73x23x3 - x73x20x3 
= 0

x119x181x1 + x22x181x1 + x57x181x1 + x245x181x1 + x191x181x1 + x216x181x1 + x73x181x1 
- x181x0x1
- x181x23x1 
= 0

x257x181x3 + x201x181x3 + x84x181x3 + x97x181x3 + x231x181x3 + x57x181x3 + x191x181x3 + x73x181x3 
- x181x0x3
- x181x239x3 - x181x23x3 - x181x20x3 
= 0



x257x239x3 + x201x239x3 + x84x239x3 + x97x239x3 + x231x239x3 + x57x239x3 + x191x239x3 + x73x239x3 + x181x239x3 
- x239x0x3
- x239x23x3 - x239x20x3 
= 0

x119x23x1 + x22x23x1 + x57x23x1 + x245x23x1 + x191x23x1 + x216x23x1 + x73x23x1 + x181x23x1 
- x23x0x1

= 0

x257x23x3 + x201x23x3 + x84x23x3 + x97x23x3 + x231x23x3 + x57x23x3 + x191x23x3 + x73x23x3 + x181x23x3 + x239x23x3 
- x23x0x3
- x23x20x3 
= 0


x201x20x2 + x4x20x2 + x119x20x2 + x97x20x2 + x110x20x2 + x231x20x2 + x245x20x2 + x216x20x2 + x16x20x2 + x215x20x2 + x254x20x2 
- x20x0x2

= 0
x257x20x3 + x201x20x3 + x84x20x3 + x97x20x3 + x231x20x3 + x57x20x3 + x191x20x3 + x254x20x3 + x264x20x3 + x289x20x3 + x73x20x3 + x181x20x3 + x239x20x3 + x23x20x3 
- x20x0x3

= 0

1y3 - x201x3x2 - x4x3x2 - x119x3x2 - x97x3x2 - x110x3x2 - x231x3x2 - x245x3x2 - x216x3x2 = 0
1y3 - x257x3x3 - x201x3x3 - x84x3x3 - x97x3x3 - x231x3x3 - x57x3x3 - x191x3x3 = 0
2y16 - x201x16x2 - x4x16x2 - x119x16x2 - x110x16x2 - x231x16x2 - x245x16x2 - x216x16x2 = 0
1y58 - x201x58x2 - x110x58x2 - x231x58x2 - x216x58x2 = 0
1y58 - x201x58x3 - x231x58x3 - x57x58x3 - x191x58x3 = 0
2y66 - x119x66x1 - x22x66x1 - x57x66x1 - x245x66x1 - x191x66x1 - x216x66x1 = 0
2y84 - x231x84x3 = 0
2y87 - x57x87x1 - x191x87x1 = 0
1y88 - x119x88x1 - x22x88x1 - x57x88x1 - x245x88x1 - x191x88x1 - x216x88x1 = 0
1y88 - x201x88x2 - x4x88x2 - x119x88x2 - x110x88x2 - x231x88x2 - x245x88x2 - x216x88x2 = 0
1y97 - x110x97x2 - x231x97x2 = 0
1y97 - x231x97x3 - x57x97x3 = 0
2y109 - x110x109x2 - x231x109x2 = 0
1y114 - x57x114x1 - x191x114x1 = 0
1y114 - x201x114x2 - x110x114x2 - x231x114x2 = 0
1y206 - x119x206x1 - x22x206x1 - x57x206x1 - x245x206x1 - x191x206x1 - x216x206x1 = 0
1y206 - x257x206x3 - x201x206x3 - x84x206x3 - x97x206x3 - x231x206x3 - x57x206x3 - x191x206x3 = 0
2y215 - x201x215x2 - x4x215x2 - x119x215x2 - x110x215x2 - x231x215x2 - x245x215x2 - x216x215x2 = 0
2y240 - x201x240x2 - x110x240x2 - x231x240x2 = 0
1y254 - x201x254x2 - x4x254x2 - x119x254x2 - x110x254x2 - x231x254x2 - x245x254x2 - x216x254x2 = 0
1y254 - x257x254x3 - x201x254x3 - x84x254x3 - x231x254x3 - x57x254x3 - x191x254x3 = 0
1y261 = 0
1y261 - x231x261x3 = 0
2y264 - x257x264x3 - x201x264x3 - x84x264x3 - x231x264x3 - x57x264x3 - x191x264x3 = 0
2y289 - x257x289x3 - x201x289x3 - x84x289x3 - x97x289x3 - x231x289x3 - x57x289x3 - x191x289x3 = 0
1y251 - x119x251x1 - x22x251x1 - x57x251x1 - x245x251x1 - x191x251x1 - x216x251x1 - x66x251x1 = 0
1y251 - x257x251x3 - x201x251x3 - x84x251x3 - x97x251x3 - x231x251x3 - x57x251x3 - x191x251x3 - x3x251x3 - x254x251x3 - x264x251x3 - x289x251x3 = 0
1y187 - x119x187x1 - x22x187x1 - x57x187x1 - x245x187x1 - x191x187x1 - x216x187x1 - x66x187x1 - x88x187x1 - x206x187x1 = 0
1y187 - x201x187x2 - x4x187x2 - x119x187x2 - x97x187x2 - x110x187x2 - x231x187x2 - x245x187x2 - x216x187x2 - x3x187x2 - x88x187x2 - x254x187x2 = 0
1y226 - x119x226x1 - x22x226x1 - x57x226x1 - x245x226x1 - x191x226x1 - x216x226x1 - x66x226x1 = 0
1y226 - x257x226x3 - x201x226x3 - x84x226x3 - x97x226x3 - x231x226x3 - x57x226x3 - x191x226x3 - x3x226x3 - x254x226x3 - x264x226x3 - x289x226x3 = 0
1y73 - x119x73x1 - x22x73x1 - x57x73x1 - x245x73x1 - x191x73x1 - x216x73x1 = 0
1y73 - x257x73x3 - x201x73x3 - x84x73x3 - x97x73x3 - x231x73x3 - x57x73x3 - x191x73x3 = 0
1y181 - x119x181x1 - x22x181x1 - x57x181x1 - x245x181x1 - x191x181x1 - x216x181x1 - x73x181x1 = 0
1y181 - x257x181x3 - x201x181x3 - x84x181x3 - x97x181x3 - x231x181x3 - x57x181x3 - x191x181x3 - x73x181x3 = 0
2y239 - x257x239x3 - x201x239x3 - x84x239x3 - x97x239x3 - x231x239x3 - x57x239x3 - x191x239x3 - x73x239x3 - x181x239x3 = 0
1y23 - x119x23x1 - x22x23x1 - x57x23x1 - x245x23x1 - x191x23x1 - x216x23x1 - x73x23x1 - x181x23x1 = 0
1y23 - x257x23x3 - x201x23x3 - x84x23x3 - x97x23x3 - x231x23x3 - x57x23x3 - x191x23x3 - x73x23x3 - x181x23x3 - x239x23x3 = 0
1y20 - x201x20x2 - x4x20x2 - x119x20x2 - x97x20x2 - x110x20x2 - x231x20x2 - x245x20x2 - x216x20x2 - x16x20x2 - x215x20x2 - x254x20x2 = 0
1y20 - x257x20x3 - x201x20x3 - x84x20x3 - x97x20x3 - x231x20x3 - x57x20x3 - x191x20x3 - x254x20x3 - x264x20x3 - x289x20x3 - x73x20x3 - x181x20x3 - x239x20x3 - x23x20x3 = 0

s257 - s3 + 6.653460z257z3z3 <= 5.22
s257 - s206 + 6.613355z257z206z3 <= 5.22
s257 - s254 + 6.650985z257z254z3 <= 5.22
s257 - s264 + 6.642210z257z264z3 <= 5.22
s257 - s289 + 6.665875z257z289z3 <= 5.22
s257 - s251 + 6.665475z257z251z3 <= 5.22
s257 - s226 + 6.680331z257z226z3 <= 5.22
s257 - s73 + 6.719372z257z73z3 <= 5.22
s257 - s181 + 6.737594z257z181z3 <= 5.22
s257 - s239 + 6.732404z257z239z3 <= 5.22
s257 - s23 + 6.753360z257z23z3 <= 5.22
s257 - s20 + 6.754819z257z20z3 <= 5.22
s201 - s3 + 6.277384z201z3z2 <= 4.84
s201 - s3 + 6.277384z201z3z3 <= 4.84
s201 - s16 + 6.248940z201z16z2 <= 4.84
s201 - s58 + 6.097311z201z58z2 <= 4.84
s201 - s58 + 6.097311z201z58z3 <= 4.84
s201 - s88 + 6.232667z201z88z2 <= 4.84
s201 - s114 + 6.095476z201z114z2 <= 4.84
s201 - s206 + 6.237810z201z206z3 <= 4.84
s201 - s215 + 6.286777z201z215z2 <= 4.84
s201 - s240 + 6.099305z201z240z2 <= 4.84
s201 - s254 + 6.274618z201z254z2 <= 4.84
s201 - s254 + 6.274618z201z254z3 <= 4.84
s201 - s264 + 6.265795z201z264z3 <= 4.84
s201 - s289 + 6.289517z201z289z3 <= 4.84
s201 - s251 + 6.289517z201z251z3 <= 4.84
s201 - s187 + 6.273126z201z187z2 <= 4.84
s201 - s226 + 6.304175z201z226z3 <= 4.84
s201 - s73 + 6.338889z201z73z3 <= 4.84
s201 - s181 + 6.357246z201z181z3 <= 4.84
s201 - s239 + 6.351957z201z239z3 <= 4.84
s201 - s23 + 6.372882z201z23z3 <= 4.84
s201 - s20 + 6.374262z201z20z2 <= 4.84
s201 - s20 + 6.374262z201z20z3 <= 4.84
s4 - s3 + 6.387963z4z3z2 <= 4.92
s4 - s16 + 6.334291z4z16z2 <= 4.92
s4 - s88 + 6.347366z4z88z2 <= 4.92
s4 - s215 + 6.386252z4z215z2 <= 4.92
s4 - s254 + 6.377217z4z254z2 <= 4.92
s4 - s187 + 6.396748z4z187z2 <= 4.92
s4 - s20 + 6.355186z4z20z2 <= 4.92
s119 - s3 + 6.371772z119z3z2 <= 4.94
s119 - s16 + 6.320330z119z16z2 <= 4.94
s119 - s66 + 6.376248z119z66z1 <= 4.94
s119 - s88 + 6.330534z119z88z1 <= 4.94
s119 - s88 + 6.330534z119z88z2 <= 4.94
s119 - s206 + 6.349032z119z206z1 <= 4.94
s119 - s215 + 6.371151z119z215z2 <= 4.94
s119 - s254 + 6.361723z119z254z2 <= 4.94
s119 - s251 + 6.386168z119z251z1 <= 4.94
s119 - s187 + 6.379513z119z187z1 <= 4.94
s119 - s187 + 6.379513z119z187z2 <= 4.94
s119 - s226 + 6.394794z119z226z1 <= 4.94
s119 - s73 + 6.329330z119z73z1 <= 4.94
s119 - s181 + 6.349687z119z181z1 <= 4.94
s119 - s23 + 6.362358z119z23z1 <= 4.94
s119 - s20 + 6.362200z119z20z2 <= 4.94
s84 - s3 + 6.709313z84z3z3 <= 5.51
s84 - s206 + 6.667783z84z206z3 <= 5.51
s84 - s254 + 6.709313z84z254z3 <= 5.51
s84 - s264 + 6.701170z84z264z3 <= 5.51
s84 - s289 + 6.723958z84z289z3 <= 5.51
s84 - s251 + 6.720628z84z251z3 <= 5.51
s84 - s226 + 6.736598z84z226z3 <= 5.51
s84 - s73 + 6.874210z84z73z3 <= 5.51
s84 - s181 + 6.886176z84z181z3 <= 5.51
s84 - s239 + 6.884760z84z239z3 <= 5.51
s84 - s23 + 6.904794z84z23z3 <= 5.51
s84 - s20 + 6.908758z84z20z3 <= 5.51
s22 - s66 + 6.686656z22z66z1 <= 5.46
s22 - s88 + 6.635952z22z88z1 <= 5.46
s22 - s206 + 6.642420z22z206z1 <= 5.46
s22 - s251 + 6.692769z22z251z1 <= 5.46
s22 - s187 + 6.677168z22z187z1 <= 5.46
s22 - s226 + 6.707578z22z226z1 <= 5.46
s22 - s73 + 6.817622z22z73z1 <= 5.46
s22 - s181 + 6.830935z22z181z1 <= 5.46
s22 - s23 + 6.849269z22z23z1 <= 5.46
s97 - s3 + 6.892514z97z3z2 <= 5.71
s97 - s3 + 6.892514z97z3z3 <= 5.71
s97 - s206 + 6.854460z97z206z3 <= 5.71
s97 - s289 + 6.905856z97z289z3 <= 5.71
s97 - s251 + 6.904507z97z251z3 <= 5.71
s97 - s187 + 6.888995z97z187z2 <= 5.71
s97 - s226 + 6.919512z97z226z3 <= 5.71
s97 - s73 + 7.053346z97z73z3 <= 5.71
s97 - s181 + 7.064978z97z181z3 <= 5.71
s97 - s239 + 7.063732z97z239z3 <= 5.71
s97 - s23 + 7.083644z97z23z3 <= 5.71
s97 - s20 + 7.087701z97z20z2 <= 5.71
s97 - s20 + 7.087701z97z20z3 <= 5.71
s110 - s3 + 6.133815z110z3z2 <= 4.37
s110 - s16 + 6.068173z110z16z2 <= 4.37
s110 - s58 + 6.040713z110z58z2 <= 4.37
s110 - s88 + 6.099196z110z88z2 <= 4.37
s110 - s97 + 6.001240z110z97z2 <= 4.37
s110 - s109 + 6.010981z110z109z2 <= 4.37
s110 - s114 + 6.023971z110z114z2 <= 4.37
s110 - s215 + 6.124715z110z215z2 <= 4.37
s110 - s240 + 6.014150z110z240z2 <= 4.37
s110 - s254 + 6.118705z110z254z2 <= 4.37
s110 - s187 + 6.149968z110z187z2 <= 4.37
s110 - s20 + 5.964037z110z20z2 <= 4.37
s231 - s3 + 6.166564z231z3z2 <= 4.54
s231 - s3 + 6.166564z231z3z3 <= 4.54
s231 - s16 + 6.108787z231z16z2 <= 4.54
s231 - s58 + 6.045212z231z58z2 <= 4.54
s231 - s58 + 6.045212z231z58z3 <= 4.54
s231 - s84 + 6.010371z231z84z3 <= 4.54
s231 - s88 + 6.127276z231z88z2 <= 4.54
s231 - s97 + 6.012356z231z97z2 <= 4.54
s231 - s97 + 6.012356z231z97z3 <= 4.54
s231 - s109 + 6.019099z231z109z2 <= 4.54
s231 - s114 + 6.031401z231z114z2 <= 4.54
s231 - s206 + 6.148246z231z206z3 <= 4.54
s231 - s215 + 6.162715z231z215z2 <= 4.54
s231 - s240 + 6.024462z231z240z2 <= 4.54
s231 - s254 + 6.154510z231z254z2 <= 4.54
s231 - s254 + 6.154510z231z254z3 <= 4.54
s231 - s261 + 6.014050z231z261z3 <= 4.54
s231 - s264 + 6.145164z231z264z3 <= 4.54
s231 - s289 + 6.167949z231z289z3 <= 4.54
s231 - s251 + 6.181279z231z251z3 <= 4.54
s231 - s187 + 6.177239z231z187z2 <= 4.54
s231 - s226 + 6.187841z231z226z3 <= 4.54
s231 - s73 + 6.051521z231z73z3 <= 4.54
s231 - s181 + 6.072512z231z181z3 <= 4.54
s231 - s239 + 6.063741z231z239z3 <= 4.54
s231 - s23 + 6.079657z231z23z3 <= 4.54
s231 - s20 + 6.077216z231z20z2 <= 4.54
s231 - s20 + 6.077216z231z20z3 <= 4.54
s57 - s3 + 6.197176z57z3z3 <= 4.58
s57 - s58 + 6.081646z57z58z3 <= 4.58
s57 - s66 + 6.200932z57z66z1 <= 4.58
s57 - s87 + 6.052256z57z87z1 <= 4.58
s57 - s88 + 6.158631z57z88z1 <= 4.58
s57 - s97 + 6.046981z57z97z3 <= 4.58
s57 - s114 + 6.067013z57z114z1 <= 4.58
s57 - s206 + 6.180595z57z206z1 <= 4.58
s57 - s206 + 6.180595z57z206z3 <= 4.58
s57 - s254 + 6.184564z57z254z3 <= 4.58
s57 - s264 + 6.175263z57z264z3 <= 4.58
s57 - s289 + 6.197786z57z289z3 <= 4.58
s57 - s251 + 6.211960z57z251z1 <= 4.58
s57 - s251 + 6.211960z57z251z3 <= 4.58
s57 - s187 + 6.208869z57z187z1 <= 4.58
s57 - s226 + 6.217889z57z226z1 <= 4.58
s57 - s226 + 6.217889z57z226z3 <= 4.58
s57 - s73 + 6.072747z57z73z1 <= 4.58
s57 - s73 + 6.072747z57z73z3 <= 4.58
s57 - s181 + 6.093675z57z181z1 <= 4.58
s57 - s181 + 6.093675z57z181z3 <= 4.58
s57 - s239 + 6.084811z57z239z3 <= 4.58
s57 - s23 + 6.100350z57z23z1 <= 4.58
s57 - s23 + 6.100350z57z23z3 <= 4.58
s57 - s20 + 6.097750z57z20z3 <= 4.58
s245 - s3 + 6.348526z245z3z2 <= 4.60
s245 - s16 + 6.281699z245z16z2 <= 4.60
s245 - s66 + 6.351171z245z66z1 <= 4.60
s245 - s88 + 6.315008z245z88z1 <= 4.60
s245 - s88 + 6.315008z245z88z2 <= 4.60
s245 - s206 + 6.341830z245z206z1 <= 4.60
s245 - s215 + 6.338459z245z215z2 <= 4.60
s245 - s254 + 6.332887z245z254z2 <= 4.60
s245 - s251 + 6.363407z245z251z1 <= 4.60
s245 - s187 + 6.365738z245z187z1 <= 4.60
s245 - s187 + 6.365738z245z187z2 <= 4.60
s245 - s226 + 6.365447z245z226z1 <= 4.60
s245 - s73 + 6.153394z245z73z1 <= 4.60
s245 - s181 + 6.172405z245z181z1 <= 4.60
s245 - s23 + 6.173183z245z23z1 <= 4.60
s245 - s20 + 6.168771z245z20z2 <= 4.60
s191 - s3 + 6.254712z191z3z3 <= 4.73
s191 - s58 + 6.097008z191z58z3 <= 4.73
s191 - s66 + 6.259885z191z66z1 <= 4.73
s191 - s87 + 6.087157z191z87z1 <= 4.73
s191 - s88 + 6.211199z191z88z1 <= 4.73
s191 - s114 + 6.089137z191z114z1 <= 4.73
s191 - s206 + 6.223887z191z206z1 <= 4.73
s191 - s206 + 6.223887z191z206z3 <= 4.73
s191 - s254 + 6.247563z191z254z3 <= 4.73
s191 - s264 + 6.238225z191z264z3 <= 4.73
s191 - s289 + 6.262223z191z289z3 <= 4.73
s191 - s251 + 6.268354z191z251z1 <= 4.73
s191 - s251 + 6.268354z191z251z3 <= 4.73
s191 - s187 + 6.257200z191z187z1 <= 4.73
s191 - s226 + 6.279687z191z226z1 <= 4.73
s191 - s226 + 6.279687z191z226z3 <= 4.73
s191 - s73 + 6.236652z191z73z1 <= 4.73
s191 - s73 + 6.236652z191z73z3 <= 4.73
s191 - s181 + 6.257073z191z181z1 <= 4.73
s191 - s181 + 6.257073z191z181z3 <= 4.73
s191 - s239 + 6.249957z191z239z3 <= 4.73
s191 - s23 + 6.269548z191z23z1 <= 4.73
s191 - s23 + 6.269548z191z23z3 <= 4.73
s191 - s20 + 6.269260z191z20z3 <= 4.73
s216 - s3 + 6.291028z216z3z2 <= 4.79
s216 - s16 + 6.250082z216z16z2 <= 4.79
s216 - s58 + 6.129669z216z58z2 <= 4.79
s216 - s66 + 6.296335z216z66z1 <= 4.79
s216 - s88 + 6.247193z216z88z1 <= 4.79
s216 - s88 + 6.247193z216z88z2 <= 4.79
s216 - s206 + 6.258781z216z206z1 <= 4.79
s216 - s215 + 6.295506z216z215z2 <= 4.79
s216 - s254 + 6.284550z216z254z2 <= 4.79
s216 - s251 + 6.304473z216z251z1 <= 4.79
s216 - s187 + 6.292481z216z187z1 <= 4.79
s216 - s187 + 6.292481z216z187z2 <= 4.79
s216 - s226 + 6.316360z216z226z1 <= 4.79
s216 - s73 + 6.287045z216z73z1 <= 4.79
s216 - s181 + 6.307171z216z181z1 <= 4.79
s216 - s23 + 6.320333z216z23z1 <= 4.79
s216 - s20 + 6.320375z216z20z2 <= 4.79
s3 - s251 + 7.964907z3z251z3 <= 6.95
s3 - s187 + 7.983333z3z187z2 <= 6.95
s3 - s226 + 7.977487z3z226z3 <= 6.95
s16 - s20 + 7.894550z16z20z2 <= 6.62
s66 - s251 + 7.983333z66z251z1 <= 6.97
s66 - s187 + 8.007712z66z187z1 <= 6.97
s66 - s226 + 7.991082z66z226z1 <= 6.97
s88 - s187 + 7.770772z88z187z1 <= 6.72
s88 - s187 + 7.770772z88z187z2 <= 6.72
s206 - s187 + 7.905901z206z187z1 <= 6.87
s215 - s20 + 8.214466z215z20z2 <= 6.90
s254 - s251 + 7.893333z254z251z3 <= 6.86
s254 - s187 + 7.913749z254z187z2 <= 6.86
s254 - s226 + 7.893333z254z226z3 <= 6.86
s254 - s20 + 8.179514z254z20z2 <= 6.86
s254 - s20 + 8.179514z254z20z3 <= 6.86
s264 - s251 + 7.850552z264z251z3 <= 6.81
s264 - s226 + 7.852687z264z226z3 <= 6.81
s264 - s20 + 8.126158z264z20z3 <= 6.81
s289 - s251 + 7.969814z289z251z3 <= 6.94
s289 - s226 + 7.961082z289z226z3 <= 6.94
s289 - s20 + 8.260694z289z20z3 <= 6.94
s73 - s181 + 8.171082z73z181z1 <= 7.15
s73 - s181 + 8.171082z73z181z3 <= 7.15
s73 - s239 + 8.163334z73z239z3 <= 7.15
s73 - s23 + 8.183993z73z23z1 <= 7.15
s73 - s23 + 8.183993z73z23z3 <= 7.15
s73 - s20 + 8.185902z73z20z3 <= 7.15
s181 - s239 + 8.189428z181z239z3 <= 7.18
s181 - s23 + 8.198856z181z23z1 <= 7.18
s181 - s23 + 8.198856z181z23z3 <= 7.18
s181 - s20 + 8.204037z181z20z3 <= 7.18
s239 - s23 + 8.221082z239z23z3 <= 7.20
s239 - s20 + 8.224037z239z20z3 <= 7.20
s23 - s20 + 8.296667z23z20z3 <= 7.29

x257x3x3 - 1z257z3z3 <= 0
x257x206x3 - 1z257z206z3 <= 0
x257x254x3 - 1z257z254z3 <= 0
x257x264x3 - 2z257z264z3 <= 0
x257x289x3 - 2z257z289z3 <= 0
x257x251x3 - 1z257z251z3 <= 0
x257x226x3 - 1z257z226z3 <= 0
x257x73x3 - 1z257z73z3 <= 0
x257x181x3 - 1z257z181z3 <= 0
x257x239x3 - 2z257z239z3 <= 0
x257x23x3 - 1z257z23z3 <= 0
x257x20x3 - 1z257z20z3 <= 0
x201x3x2 - 1z201z3z2 <= 0
x201x3x3 - 1z201z3z3 <= 0
x201x16x2 - 2z201z16z2 <= 0
x201x58x2 - 1z201z58z2 <= 0
x201x58x3 - 1z201z58z3 <= 0
x201x88x2 - 1z201z88z2 <= 0
x201x114x2 - 1z201z114z2 <= 0
x201x206x3 - 1z201z206z3 <= 0
x201x215x2 - 2z201z215z2 <= 0
x201x240x2 - 2z201z240z2 <= 0
x201x254x2 - 1z201z254z2 <= 0
x201x254x3 - 1z201z254z3 <= 0
x201x264x3 - 2z201z264z3 <= 0
x201x289x3 - 2z201z289z3 <= 0
x201x251x3 - 1z201z251z3 <= 0
x201x187x2 - 1z201z187z2 <= 0
x201x226x3 - 1z201z226z3 <= 0
x201x73x3 - 1z201z73z3 <= 0
x201x181x3 - 1z201z181z3 <= 0
x201x239x3 - 2z201z239z3 <= 0
x201x23x3 - 1z201z23z3 <= 0
x201x20x2 - 1z201z20z2 <= 0
x201x20x3 - 1z201z20z3 <= 0
x4x3x2 - 1z4z3z2 <= 0
x4x16x2 - 2z4z16z2 <= 0
x4x88x2 - 1z4z88z2 <= 0
x4x215x2 - 2z4z215z2 <= 0
x4x254x2 - 1z4z254z2 <= 0
x4x187x2 - 1z4z187z2 <= 0
x4x20x2 - 1z4z20z2 <= 0
x119x3x2 - 1z119z3z2 <= 0
x119x16x2 - 2z119z16z2 <= 0
x119x66x1 - 2z119z66z1 <= 0
x119x88x1 - 1z119z88z1 <= 0
x119x88x2 - 1z119z88z2 <= 0
x119x206x1 - 1z119z206z1 <= 0
x119x215x2 - 2z119z215z2 <= 0
x119x254x2 - 1z119z254z2 <= 0
x119x251x1 - 1z119z251z1 <= 0
x119x187x1 - 1z119z187z1 <= 0
x119x187x2 - 1z119z187z2 <= 0
x119x226x1 - 1z119z226z1 <= 0
x119x73x1 - 1z119z73z1 <= 0
x119x181x1 - 1z119z181z1 <= 0
x119x23x1 - 1z119z23z1 <= 0
x119x20x2 - 1z119z20z2 <= 0
x84x3x3 - 1z84z3z3 <= 0
x84x206x3 - 1z84z206z3 <= 0
x84x254x3 - 1z84z254z3 <= 0
x84x264x3 - 2z84z264z3 <= 0
x84x289x3 - 2z84z289z3 <= 0
x84x251x3 - 1z84z251z3 <= 0
x84x226x3 - 1z84z226z3 <= 0
x84x73x3 - 1z84z73z3 <= 0
x84x181x3 - 1z84z181z3 <= 0
x84x239x3 - 2z84z239z3 <= 0
x84x23x3 - 1z84z23z3 <= 0
x84x20x3 - 1z84z20z3 <= 0
x22x66x1 - 2z22z66z1 <= 0
x22x88x1 - 1z22z88z1 <= 0
x22x206x1 - 1z22z206z1 <= 0
x22x251x1 - 1z22z251z1 <= 0
x22x187x1 - 1z22z187z1 <= 0
x22x226x1 - 1z22z226z1 <= 0
x22x73x1 - 1z22z73z1 <= 0
x22x181x1 - 1z22z181z1 <= 0
x22x23x1 - 1z22z23z1 <= 0
x97x3x2 - 1z97z3z2 <= 0
x97x3x3 - 1z97z3z3 <= 0
x97x206x3 - 1z97z206z3 <= 0
x97x289x3 - 2z97z289z3 <= 0
x97x251x3 - 1z97z251z3 <= 0
x97x187x2 - 1z97z187z2 <= 0
x97x226x3 - 1z97z226z3 <= 0
x97x73x3 - 1z97z73z3 <= 0
x97x181x3 - 1z97z181z3 <= 0
x97x239x3 - 2z97z239z3 <= 0
x97x23x3 - 1z97z23z3 <= 0
x97x20x2 - 1z97z20z2 <= 0
x97x20x3 - 1z97z20z3 <= 0
x110x3x2 - 1z110z3z2 <= 0
x110x16x2 - 2z110z16z2 <= 0
x110x58x2 - 1z110z58z2 <= 0
x110x88x2 - 1z110z88z2 <= 0
x110x97x2 - 1z110z97z2 <= 0
x110x109x2 - 2z110z109z2 <= 0
x110x114x2 - 1z110z114z2 <= 0
x110x215x2 - 2z110z215z2 <= 0
x110x240x2 - 2z110z240z2 <= 0
x110x254x2 - 1z110z254z2 <= 0
x110x187x2 - 1z110z187z2 <= 0
x110x20x2 - 1z110z20z2 <= 0
x231x3x2 - 1z231z3z2 <= 0
x231x3x3 - 1z231z3z3 <= 0
x231x16x2 - 2z231z16z2 <= 0
x231x58x2 - 1z231z58z2 <= 0
x231x58x3 - 1z231z58z3 <= 0
x231x84x3 - 2z231z84z3 <= 0
x231x88x2 - 1z231z88z2 <= 0
x231x97x2 - 1z231z97z2 <= 0
x231x97x3 - 1z231z97z3 <= 0
x231x109x2 - 2z231z109z2 <= 0
x231x114x2 - 1z231z114z2 <= 0
x231x206x3 - 1z231z206z3 <= 0
x231x215x2 - 2z231z215z2 <= 0
x231x240x2 - 2z231z240z2 <= 0
x231x254x2 - 1z231z254z2 <= 0
x231x254x3 - 1z231z254z3 <= 0
x231x261x3 - 1z231z261z3 <= 0
x231x264x3 - 2z231z264z3 <= 0
x231x289x3 - 2z231z289z3 <= 0
x231x251x3 - 1z231z251z3 <= 0
x231x187x2 - 1z231z187z2 <= 0
x231x226x3 - 1z231z226z3 <= 0
x231x73x3 - 1z231z73z3 <= 0
x231x181x3 - 1z231z181z3 <= 0
x231x239x3 - 2z231z239z3 <= 0
x231x23x3 - 1z231z23z3 <= 0
x231x20x2 - 1z231z20z2 <= 0
x231x20x3 - 1z231z20z3 <= 0
x57x3x3 - 1z57z3z3 <= 0
x57x58x3 - 1z57z58z3 <= 0
x57x66x1 - 2z57z66z1 <= 0
x57x87x1 - 2z57z87z1 <= 0
x57x88x1 - 1z57z88z1 <= 0
x57x97x3 - 1z57z97z3 <= 0
x57x114x1 - 1z57z114z1 <= 0
x57x206x1 - 1z57z206z1 <= 0
x57x206x3 - 1z57z206z3 <= 0
x57x254x3 - 1z57z254z3 <= 0
x57x264x3 - 2z57z264z3 <= 0
x57x289x3 - 2z57z289z3 <= 0
x57x251x1 - 1z57z251z1 <= 0
x57x251x3 - 1z57z251z3 <= 0
x57x187x1 - 1z57z187z1 <= 0
x57x226x1 - 1z57z226z1 <= 0
x57x226x3 - 1z57z226z3 <= 0
x57x73x1 - 1z57z73z1 <= 0
x57x73x3 - 1z57z73z3 <= 0
x57x181x1 - 1z57z181z1 <= 0
x57x181x3 - 1z57z181z3 <= 0
x57x239x3 - 2z57z239z3 <= 0
x57x23x1 - 1z57z23z1 <= 0
x57x23x3 - 1z57z23z3 <= 0
x57x20x3 - 1z57z20z3 <= 0
x245x3x2 - 1z245z3z2 <= 0
x245x16x2 - 2z245z16z2 <= 0
x245x66x1 - 2z245z66z1 <= 0
x245x88x1 - 1z245z88z1 <= 0
x245x88x2 - 1z245z88z2 <= 0
x245x206x1 - 1z245z206z1 <= 0
x245x215x2 - 2z245z215z2 <= 0
x245x254x2 - 1z245z254z2 <= 0
x245x251x1 - 1z245z251z1 <= 0
x245x187x1 - 1z245z187z1 <= 0
x245x187x2 - 1z245z187z2 <= 0
x245x226x1 - 1z245z226z1 <= 0
x245x73x1 - 1z245z73z1 <= 0
x245x181x1 - 1z245z181z1 <= 0
x245x23x1 - 1z245z23z1 <= 0
x245x20x2 - 1z245z20z2 <= 0
x191x3x3 - 1z191z3z3 <= 0
x191x58x3 - 1z191z58z3 <= 0
x191x66x1 - 2z191z66z1 <= 0
x191x87x1 - 2z191z87z1 <= 0
x191x88x1 - 1z191z88z1 <= 0
x191x114x1 - 1z191z114z1 <= 0
x191x206x1 - 1z191z206z1 <= 0
x191x206x3 - 1z191z206z3 <= 0
x191x254x3 - 1z191z254z3 <= 0
x191x264x3 - 2z191z264z3 <= 0
x191x289x3 - 2z191z289z3 <= 0
x191x251x1 - 1z191z251z1 <= 0
x191x251x3 - 1z191z251z3 <= 0
x191x187x1 - 1z191z187z1 <= 0
x191x226x1 - 1z191z226z1 <= 0
x191x226x3 - 1z191z226z3 <= 0
x191x73x1 - 1z191z73z1 <= 0
x191x73x3 - 1z191z73z3 <= 0
x191x181x1 - 1z191z181z1 <= 0
x191x181x3 - 1z191z181z3 <= 0
x191x239x3 - 2z191z239z3 <= 0
x191x23x1 - 1z191z23z1 <= 0
x191x23x3 - 1z191z23z3 <= 0
x191x20x3 - 1z191z20z3 <= 0
x216x3x2 - 1z216z3z2 <= 0
x216x16x2 - 2z216z16z2 <= 0
x216x58x2 - 1z216z58z2 <= 0
x216x66x1 - 2z216z66z1 <= 0
x216x88x1 - 1z216z88z1 <= 0
x216x88x2 - 1z216z88z2 <= 0
x216x206x1 - 1z216z206z1 <= 0
x216x215x2 - 2z216z215z2 <= 0
x216x254x2 - 1z216z254z2 <= 0
x216x251x1 - 1z216z251z1 <= 0
x216x187x1 - 1z216z187z1 <= 0
x216x187x2 - 1z216z187z2 <= 0
x216x226x1 - 1z216z226z1 <= 0
x216x73x1 - 1z216z73z1 <= 0
x216x181x1 - 1z216z181z1 <= 0
x216x23x1 - 1z216z23z1 <= 0
x216x20x2 - 1z216z20z2 <= 0
x3x251x3 - 1z3z251z3 <= 0
x3x187x2 - 1z3z187z2 <= 0
x3x226x3 - 1z3z226z3 <= 0
x3x0x2 <= 1
x3x0x3 <= 1
x16x20x2 - 1z16z20z2 <= 0
x16x0x2 <= 2
x58x0x2 <= 1
x58x0x3 <= 1
x66x251x1 - 1z66z251z1 <= 0
x66x187x1 - 1z66z187z1 <= 0
x66x226x1 - 1z66z226z1 <= 0
x66x0x1 <= 2
x84x0x3 <= 2
x87x0x1 <= 2
x88x187x1 - 1z88z187z1 <= 0
x88x187x2 - 1z88z187z2 <= 0
x88x0x1 <= 1
x88x0x2 <= 1
x97x0x2 <= 1
x97x0x3 <= 1
x109x0x2 <= 2
x114x0x1 <= 1
x114x0x2 <= 1
x206x187x1 - 1z206z187z1 <= 0
x206x0x1 <= 1
x206x0x3 <= 1
x215x20x2 - 1z215z20z2 <= 0
x215x0x2 <= 2
x240x0x2 <= 2
x254x251x3 - 1z254z251z3 <= 0
x254x187x2 - 1z254z187z2 <= 0
x254x226x3 - 1z254z226z3 <= 0
x254x20x2 - 1z254z20z2 <= 0
x254x20x3 - 1z254z20z3 <= 0
x254x0x2 <= 1
x254x0x3 <= 1
x261x0x1 <= 1
x261x0x3 <= 1
x264x251x3 - 1z264z251z3 <= 0
x264x226x3 - 1z264z226z3 <= 0
x264x20x3 - 1z264z20z3 <= 0
x264x0x3 <= 2
x289x251x3 - 1z289z251z3 <= 0
x289x226x3 - 1z289z226z3 <= 0
x289x20x3 - 1z289z20z3 <= 0
x289x0x3 <= 2
x251x0x1 <= 1
x251x0x3 <= 1
x187x0x1 <= 1
x187x0x2 <= 1
x226x0x1 <= 1
x226x0x3 <= 1
x73x181x1 - 1z73z181z1 <= 0
x73x181x3 - 1z73z181z3 <= 0
x73x239x3 - 2z73z239z3 <= 0
x73x23x1 - 1z73z23z1 <= 0
x73x23x3 - 1z73z23z3 <= 0
x73x20x3 - 1z73z20z3 <= 0
x73x0x1 <= 1
x73x0x3 <= 1
x181x239x3 - 2z181z239z3 <= 0
x181x23x1 - 1z181z23z1 <= 0
x181x23x3 - 1z181z23z3 <= 0
x181x20x3 - 1z181z20z3 <= 0
x181x0x1 <= 1
x181x0x3 <= 1
x239x23x3 - 1z239z23z3 <= 0
x239x20x3 - 1z239z20z3 <= 0
x239x0x3 <= 2
x23x20x3 - 1z23z20z3 <= 0
x23x0x1 <= 1
x23x0x3 <= 1
x20x0x2 <= 1
x20x0x3 <= 1

Bounds
s257 = 5.221153
s201 = 4.842055
s4 = 4.919348
s119 = 4.942147
s84 = 5.508758
s22 = 5.457067
s97 = 5.707642
s169 = 5.977582
s110 = 4.367380
s231 = 4.541140
s57 = 4.577750
s245 = 4.601830
s191 = 4.728890
s216 = 4.787000
6.000000 <= s3 <= 6.950000
6.000000 <= s16 <= 6.620000
6.000000 <= s58 <= 6.170000
6.000000 <= s66 <= 6.970000
6.000000 <= s84 <= 6.020000
6.000000 <= s87 <= 6.110000
6.000000 <= s88 <= 6.720000
6.000000 <= s97 <= 6.060000
6.000000 <= s109 <= 6.070000
6.000000 <= s114 <= 6.120000
6.000000 <= s206 <= 6.870000
6.000000 <= s215 <= 6.900000
6.000000 <= s240 <= 6.110000
6.000000 <= s254 <= 6.860000
6.000000 <= s261 <= 6.020000
6.000000 <= s264 <= 6.810000
6.000000 <= s289 <= 6.940000
6.050000 <= s251 <= 7.050000
6.060000 <= s187 <= 7.060000
6.070000 <= s226 <= 7.070000
6.150000 <= s73 <= 7.150000
6.180000 <= s181 <= 7.180000
6.200000 <= s239 <= 7.200000
6.290000 <= s23 <= 7.290000
6.330000 <= s20 <= 7.330000

General
x257x3x3 x257x206x3 x257x254x3 x257x264x3 x257x289x3 x257x251x3 x257x226x3 x257x73x3 x257x181x3 x257x239x3 x257x23x3 x257x20x3 
x201x3x2 x201x3x3 x201x16x2 x201x58x2 x201x58x3 x201x88x2 x201x114x2 x201x206x3 x201x215x2 x201x240x2 x201x254x2 x201x254x3 x201x264x3 x201x289x3 x201x251x3 x201x187x2 x201x226x3 x201x73x3 x201x181x3 x201x239x3 x201x23x3 x201x20x2 x201x20x3 
x4x3x2 x4x16x2 x4x88x2 x4x215x2 x4x254x2 x4x187x2 x4x20x2 
x119x3x2 x119x16x2 x119x66x1 x119x88x1 x119x88x2 x119x206x1 x119x215x2 x119x254x2 x119x251x1 x119x187x1 x119x187x2 x119x226x1 x119x73x1 x119x181x1 x119x23x1 x119x20x2 
x84x3x3 x84x206x3 x84x254x3 x84x264x3 x84x289x3 x84x251x3 x84x226x3 x84x73x3 x84x181x3 x84x239x3 x84x23x3 x84x20x3 
x22x66x1 x22x88x1 x22x206x1 x22x251x1 x22x187x1 x22x226x1 x22x73x1 x22x181x1 x22x23x1 
x97x3x2 x97x3x3 x97x206x3 x97x289x3 x97x251x3 x97x187x2 x97x226x3 x97x73x3 x97x181x3 x97x239x3 x97x23x3 x97x20x2 x97x20x3 

x110x3x2 x110x16x2 x110x58x2 x110x88x2 x110x97x2 x110x109x2 x110x114x2 x110x215x2 x110x240x2 x110x254x2 x110x187x2 x110x20x2 
x231x3x2 x231x3x3 x231x16x2 x231x58x2 x231x58x3 x231x84x3 x231x88x2 x231x97x2 x231x97x3 x231x109x2 x231x114x2 x231x206x3 x231x215x2 x231x240x2 x231x254x2 x231x254x3 x231x261x3 x231x264x3 x231x289x3 x231x251x3 x231x187x2 x231x226x3 x231x73x3 x231x181x3 x231x239x3 x231x23x3 x231x20x2 x231x20x3 
x57x3x3 x57x58x3 x57x66x1 x57x87x1 x57x88x1 x57x97x3 x57x114x1 x57x206x1 x57x206x3 x57x254x3 x57x264x3 x57x289x3 x57x251x1 x57x251x3 x57x187x1 x57x226x1 x57x226x3 x57x73x1 x57x73x3 x57x181x1 x57x181x3 x57x239x3 x57x23x1 x57x23x3 x57x20x3 
x245x3x2 x245x16x2 x245x66x1 x245x88x1 x245x88x2 x245x206x1 x245x215x2 x245x254x2 x245x251x1 x245x187x1 x245x187x2 x245x226x1 x245x73x1 x245x181x1 x245x23x1 x245x20x2 
x191x3x3 x191x58x3 x191x66x1 x191x87x1 x191x88x1 x191x114x1 x191x206x1 x191x206x3 x191x254x3 x191x264x3 x191x289x3 x191x251x1 x191x251x3 x191x187x1 x191x226x1 x191x226x3 x191x73x1 x191x73x3 x191x181x1 x191x181x3 x191x239x3 x191x23x1 x191x23x3 x191x20x3 
x216x3x2 x216x16x2 x216x58x2 x216x66x1 x216x88x1 x216x88x2 x216x206x1 x216x215x2 x216x254x2 x216x251x1 x216x187x1 x216x187x2 x216x226x1 x216x73x1 x216x181x1 x216x23x1 x216x20x2 
x3x251x3 x3x187x2 x3x226x3 x3x0x2 x3x0x3 
x16x20x2 x16x0x2 
x58x0x2 x58x0x3 
x66x251x1 x66x187x1 x66x226x1 x66x0x1 
x84x0x3 
x87x0x1 
x88x187x1 x88x187x2 x88x0x1 x88x0x2 
x97x0x2 x97x0x3 
x109x0x2 
x114x0x1 x114x0x2 
x206x187x1 x206x0x1 x206x0x3 
x215x20x2 x215x0x2 
x240x0x2 
x254x251x3 x254x187x2 x254x226x3 x254x20x2 x254x20x3 x254x0x2 x254x0x3 
x261x0x1 x261x0x3 
x264x251x3 x264x226x3 x264x20x3 x264x0x3 
x289x251x3 x289x226x3 x289x20x3 x289x0x3 
x251x0x1 x251x0x3 
x187x0x1 x187x0x2 
x226x0x1 x226x0x3 
x73x181x1 x73x181x3 x73x239x3 x73x23x1 x73x23x3 x73x20x3 x73x0x1 x73x0x3 
x181x239x3 x181x23x1 x181x23x3 x181x20x3 x181x0x1 x181x0x3 
x239x23x3 x239x20x3 x239x0x3 
x23x20x3 x23x0x1 x23x0x3 
x20x0x2 x20x0x3 

Binaries
y3 y16 y58 y66 y84 y87 y88 y97 y109 y114 y206 y215 y240 y254 y261 y264 y289 y251 y187 y226 y73 y181 y239 y23 y20 
z257z3z3 z257z206z3 z257z254z3 z257z264z3 z257z289z3 z257z251z3 z257z226z3 z257z73z3 z257z181z3 z257z239z3 z257z23z3 z257z20z3 
z201z3z2 z201z3z3 z201z16z2 z201z58z2 z201z58z3 z201z88z2 z201z114z2 z201z206z3 z201z215z2 z201z240z2 z201z254z2 z201z254z3 z201z264z3 z201z289z3 z201z251z3 z201z187z2 z201z226z3 z201z73z3 z201z181z3 z201z239z3 z201z23z3 z201z20z2 z201z20z3 
z4z3z2 z4z16z2 z4z88z2 z4z215z2 z4z254z2 z4z187z2 z4z20z2 
z119z3z2 z119z16z2 z119z66z1 z119z88z1 z119z88z2 z119z206z1 z119z215z2 z119z254z2 z119z251z1 z119z187z1 z119z187z2 z119z226z1 z119z73z1 z119z181z1 z119z23z1 z119z20z2 
z84z3z3 z84z206z3 z84z254z3 z84z264z3 z84z289z3 z84z251z3 z84z226z3 z84z73z3 z84z181z3 z84z239z3 z84z23z3 z84z20z3 
z22z66z1 z22z88z1 z22z206z1 z22z251z1 z22z187z1 z22z226z1 z22z73z1 z22z181z1 z22z23z1 
z97z3z2 z97z3z3 z97z206z3 z97z289z3 z97z251z3 z97z187z2 z97z226z3 z97z73z3 z97z181z3 z97z239z3 z97z23z3 z97z20z2 z97z20z3 

z110z3z2 z110z16z2 z110z58z2 z110z88z2 z110z97z2 z110z109z2 z110z114z2 z110z215z2 z110z240z2 z110z254z2 z110z187z2 z110z20z2 
z231z3z2 z231z3z3 z231z16z2 z231z58z2 z231z58z3 z231z84z3 z231z88z2 z231z97z2 z231z97z3 z231z109z2 z231z114z2 z231z206z3 z231z215z2 z231z240z2 z231z254z2 z231z254z3 z231z261z3 z231z264z3 z231z289z3 z231z251z3 z231z187z2 z231z226z3 z231z73z3 z231z181z3 z231z239z3 z231z23z3 z231z20z2 z231z20z3 
z57z3z3 z57z58z3 z57z66z1 z57z87z1 z57z88z1 z57z97z3 z57z114z1 z57z206z1 z57z206z3 z57z254z3 z57z264z3 z57z289z3 z57z251z1 z57z251z3 z57z187z1 z57z226z1 z57z226z3 z57z73z1 z57z73z3 z57z181z1 z57z181z3 z57z239z3 z57z23z1 z57z23z3 z57z20z3 
z245z3z2 z245z16z2 z245z66z1 z245z88z1 z245z88z2 z245z206z1 z245z215z2 z245z254z2 z245z251z1 z245z187z1 z245z187z2 z245z226z1 z245z73z1 z245z181z1 z245z23z1 z245z20z2 
z191z3z3 z191z58z3 z191z66z1 z191z87z1 z191z88z1 z191z114z1 z191z206z1 z191z206z3 z191z254z3 z191z264z3 z191z289z3 z191z251z1 z191z251z3 z191z187z1 z191z226z1 z191z226z3 z191z73z1 z191z73z3 z191z181z1 z191z181z3 z191z239z3 z191z23z1 z191z23z3 z191z20z3 
z216z3z2 z216z16z2 z216z58z2 z216z66z1 z216z88z1 z216z88z2 z216z206z1 z216z215z2 z216z254z2 z216z251z1 z216z187z1 z216z187z2 z216z226z1 z216z73z1 z216z181z1 z216z23z1 z216z20z2 
z3z251z3 z3z187z2 z3z226z3 
z16z20z2 

z66z251z1 z66z187z1 z66z226z1 


z88z187z1 z88z187z2 



z206z187z1 
z215z20z2 

z254z251z3 z254z187z2 z254z226z3 z254z20z2 z254z20z3 

z264z251z3 z264z226z3 z264z20z3 
z289z251z3 z289z226z3 z289z20z3 



z73z181z1 z73z181z3 z73z239z3 z73z23z1 z73z23z3 z73z20z3 
z181z239z3 z181z23z1 z181z23z3 z181z20z3 
z239z23z3 z239z20z3 
z23z20z3 


End